ssat_solver_solve2
#level: 2
Abc_NtkNodeNum(s->pNtk): 1804  , BDD limit: 10240
level 1: 15 element
Exist
existence_eliminate_scope
Abc_NtkIsBddLogic(pNtk): 0
Abc_NtkIsStrash(pNtk): 1
existence_eliminate_scope_aig
exist by BDD failed
Abc_NtkNodeNum(s->pNtk): 543369  , BDD limit: 652042
Build BDD success
level 0: 15 element
Random
c ssat solving in ABC
#var: 30
s SATISFIABLE
  > Upper bound = 1.000000e+00
  > Lower bound = 1.000000e+00
FINISHED CPU 14.09 MEM 171644 MAXMEM 171644 STALE 0 MAXMEM_RSS 127396
<time name="ALL">14170</time>
real 14.23
user 16.42
sys 5.93
